unknown
(:binary-propagations  5926
 :decisions            589
 :del-clause           1099
 :final-checks         2
 :max-generation       1
 :max-memory           54.95
 :memory               35.53
 :mk-bool-var          9694
 :mk-clause            1410
 :mk-clause-binary     6595
 :num-allocs           790993374
 :num-checks           1
 :propagations         6006
 :quant-instantiations 1099
 :restarts             1
 :rlimit-count         2223262
 :time                 0.32)
